objective value:                                10934
t_x_2                                               1 	(obj:1)
t_x_4                                               1 	(obj:13)
t_x_5                                               1 	(obj:39)
t_x_7                                               1 	(obj:32)
t_x_9                                               1 	(obj:24)
t_x_19                                              1 	(obj:0)
t_x_21                                              1 	(obj:14)
t_x_30                                              1 	(obj:25)
t_x_32                                              1 	(obj:17)
t_x_34                                              1 	(obj:7)
t_x_40                                              1 	(obj:0)
t_x_41                                              1 	(obj:8)
t_x_43                                              1 	(obj:53)
t_x_45                                              1 	(obj:23)
t_x_50                                              1 	(obj:19)
t_x_53                                              1 	(obj:7)
t_x_55                                              1 	(obj:1)
t_x_56                                              1 	(obj:1)
t_x_58                                              1 	(obj:33)
t_x_61                                              1 	(obj:30)
t_x_66                                              1 	(obj:68)
t_x_73                                              1 	(obj:2)
t_x_86                                              1 	(obj:34)
t_x_88                                              1 	(obj:27)
t_x_89                                              1 	(obj:23)
t_x_91                                              1 	(obj:22)
t_x_102                                             1 	(obj:12)
t_x_105                                             1 	(obj:37)
t_x_107                                             1 	(obj:58)
t_x_108                                             1 	(obj:10)
t_x_113                                             1 	(obj:6)
t_x_118                                             1 	(obj:10)
t_x_125                                             1 	(obj:33)
t_x_129                                             1 	(obj:6)
t_x_132                                             1 	(obj:55)
t_x_141                                             1 	(obj:12)
t_x_145                                             1 	(obj:7)
t_x_148                                             1 	(obj:93)
t_x_149                                             1 	(obj:15)
t_x_151                                             1 	(obj:21)
t_x_163                                             1 	(obj:23)
t_x_164                                             1 	(obj:17)
t_x_169                                             1 	(obj:25)
t_x_174                                             1 	(obj:17)
t_x_175                                             1 	(obj:20)
t_x_177                                             1 	(obj:32)
t_x_178                                             1 	(obj:4)
t_x_180                                             1 	(obj:23)
t_x_182                                             1 	(obj:10)
t_x_187                                             1 	(obj:50)
t_x_189                                             1 	(obj:22)
t_x_195                                             1 	(obj:25)
t_x_201                                             1 	(obj:44)
t_x_208                                             1 	(obj:10)
t_x_213                                             1 	(obj:11)
t_x_216                                             1 	(obj:28)
t_x_218                                             1 	(obj:0)
t_x_219                                             1 	(obj:3)
t_x_222                                             1 	(obj:12)
t_x_229                                             1 	(obj:26)
t_x_230                                             1 	(obj:14)
t_x_231                                             1 	(obj:14)
t_x_236                                             1 	(obj:4)
t_x_240                                             1 	(obj:46)
t_x_241                                             1 	(obj:19)
t_x_244                                             1 	(obj:18)
t_x_250                                             1 	(obj:5)
t_x_253                                             1 	(obj:6)
t_x_254                                             1 	(obj:18)
t_x_256                                             1 	(obj:23)
t_x_257                                             1 	(obj:0)
t_x_258                                             1 	(obj:5)
t_x_261                                             1 	(obj:6)
t_x_262                                             1 	(obj:0)
t_x_265                                             1 	(obj:6)
t_x_268                                             1 	(obj:2)
t_x_272                                             1 	(obj:30)
t_x_274                                             1 	(obj:1)
t_x_280                                             1 	(obj:18)
t_x_285                                             1 	(obj:3)
t_x_291                                             1 	(obj:12)
t_x_293                                             1 	(obj:14)
t_x_294                                             1 	(obj:1)
t_x_296                                             1 	(obj:0)
t_x_300                                             1 	(obj:47)
t_x_302                                             1 	(obj:25)
t_x_303                                             1 	(obj:21)
t_x_309                                             1 	(obj:6)
t_x_310                                             1 	(obj:19)
t_x_316                                             1 	(obj:23)
t_x_319                                             1 	(obj:10)
t_x_326                                             1 	(obj:27)
t_x_335                                             1 	(obj:0)
t_x_337                                             1 	(obj:1)
t_x_348                                             1 	(obj:20)
t_x_351                                             1 	(obj:27)
t_x_358                                             1 	(obj:5)
t_x_359                                             1 	(obj:1)
t_x_360                                             1 	(obj:10)
t_x_365                                             1 	(obj:39)
t_x_368                                             1 	(obj:27)
t_x_369                                             1 	(obj:0)
t_x_374                                             1 	(obj:23)
t_x_385                                             1 	(obj:17)
t_x_389                                             1 	(obj:19)
t_x_391                                             1 	(obj:11)
t_x_392                                             1 	(obj:27)
t_x_395                                             1 	(obj:2)
t_x_404                                             1 	(obj:33)
t_x_405                                             1 	(obj:28)
t_x_407                                             1 	(obj:3)
t_x_410                                             1 	(obj:33)
t_x_411                                             1 	(obj:39)
t_x_415                                             1 	(obj:19)
t_x_426                                             1 	(obj:46)
t_x_428                                             1 	(obj:28)
t_x_430                                             1 	(obj:9)
t_x_432                                             1 	(obj:4)
t_x_433                                             1 	(obj:7)
t_x_436                                             1 	(obj:13)
t_x_439                                             1 	(obj:25)
t_x_443                                             1 	(obj:27)
t_x_449                                             1 	(obj:11)
t_x_454                                             1 	(obj:6)
t_x_456                                             1 	(obj:1)
t_x_460                                             1 	(obj:13)
t_x_466                                             1 	(obj:39)
t_x_467                                             1 	(obj:10)
t_x_468                                             1 	(obj:6)
t_x_479                                             1 	(obj:30)
t_x_481                                             1 	(obj:6)
t_x_489                                             1 	(obj:5)
t_x_500                                             1 	(obj:5)
t_x_502                                             1 	(obj:15)
t_x_503                                             1 	(obj:38)
t_x_505                                             1 	(obj:2)
t_x_507                                             1 	(obj:17)
t_x_508                                             1 	(obj:16)
t_x_516                                             1 	(obj:6)
t_x_523                                             1 	(obj:4)
t_x_524                                             1 	(obj:27)
t_x_527                                             1 	(obj:29)
t_x_528                                             1 	(obj:22)
t_x_538                                             1 	(obj:4)
t_x_539                                             1 	(obj:11)
t_x_540                                             1 	(obj:8)
t_x_546                                             1 	(obj:1)
t_x_548                                             1 	(obj:2)
t_x_549                                             1 	(obj:10)
t_x_550                                             1 	(obj:11)
t_x_551                                             1 	(obj:20)
t_x_553                                             1 	(obj:46)
t_x_557                                             1 	(obj:20)
t_x_560                                             1 	(obj:83)
t_x_562                                             1 	(obj:20)
t_x_568                                             1 	(obj:32)
t_x_572                                             1 	(obj:23)
t_x_573                                             1 	(obj:16)
t_x_578                                             1 	(obj:9)
t_x_581                                             1 	(obj:4)
t_x_584                                             1 	(obj:21)
t_x_588                                             1 	(obj:9)
t_x_589                                             1 	(obj:33)
t_x_593                                             1 	(obj:6)
t_x_600                                             1 	(obj:16)
t_x_601                                             1 	(obj:5)
t_x_610                                             1 	(obj:29)
t_x_612                                             1 	(obj:2)
t_x_614                                             1 	(obj:6)
t_x_619                                             1 	(obj:21)
t_x_621                                             1 	(obj:1)
t_x_623                                             1 	(obj:2)
t_x_625                                             1 	(obj:40)
t_x_626                                             1 	(obj:2)
t_x_629                                             1 	(obj:40)
t_x_635                                             1 	(obj:9)
t_x_637                                             1 	(obj:0)
t_x_642                                             1 	(obj:22)
t_x_649                                             1 	(obj:16)
t_x_651                                             1 	(obj:20)
t_x_652                                             1 	(obj:54)
t_x_654                                             1 	(obj:11)
t_x_655                                             1 	(obj:2)
t_x_656                                             1 	(obj:19)
t_x_657                                             1 	(obj:15)
t_x_662                                             1 	(obj:66)
t_x_663                                             1 	(obj:17)
t_x_669                                             1 	(obj:34)
t_x_675                                             1 	(obj:13)
t_x_679                                             1 	(obj:2)
t_x_684                                             1 	(obj:31)
t_x_687                                             1 	(obj:7)
t_x_688                                             1 	(obj:5)
t_x_694                                             1 	(obj:23)
t_x_695                                             1 	(obj:5)
t_x_697                                             1 	(obj:59)
t_x_702                                             1 	(obj:44)
t_x_706                                             1 	(obj:30)
t_x_708                                             1 	(obj:85)
t_x_713                                             1 	(obj:1)
t_x_715                                             1 	(obj:7)
t_x_718                                             1 	(obj:11)
t_x_720                                             1 	(obj:30)
t_x_721                                             1 	(obj:13)
t_x_722                                             1 	(obj:1)
t_x_728                                             1 	(obj:26)
t_x_729                                             1 	(obj:14)
t_x_744                                             1 	(obj:26)
t_x_753                                             1 	(obj:1)
t_x_754                                             1 	(obj:45)
t_x_755                                             1 	(obj:4)
t_x_756                                             1 	(obj:5)
t_x_757                                             1 	(obj:9)
t_x_760                                             1 	(obj:39)
t_x_761                                             1 	(obj:0)
t_x_763                                             1 	(obj:16)
t_x_764                                             1 	(obj:10)
t_x_765                                             1 	(obj:56)
t_x_772                                             1 	(obj:7)
t_x_779                                             1 	(obj:36)
t_x_782                                             1 	(obj:17)
t_x_786                                             1 	(obj:1)
t_x_802                                             1 	(obj:22)
t_x_805                                             1 	(obj:6)
t_x_808                                             1 	(obj:16)
t_x_812                                             1 	(obj:20)
t_x_814                                             1 	(obj:10)
t_x_818                                             1 	(obj:6)
t_x_821                                             1 	(obj:17)
t_x_822                                             1 	(obj:38)
t_x_825                                             1 	(obj:7)
t_x_827                                             1 	(obj:6)
t_x_832                                             1 	(obj:40)
t_x_835                                             1 	(obj:33)
t_x_837                                             1 	(obj:42)
t_x_838                                             1 	(obj:0)
t_x_839                                             1 	(obj:23)
t_x_840                                             1 	(obj:6)
t_x_842                                             1 	(obj:44)
t_x_843                                             1 	(obj:13)
t_x_845                                             1 	(obj:19)
t_x_848                                             1 	(obj:39)
t_x_856                                             1 	(obj:1)
t_x_857                                             1 	(obj:39)
t_x_858                                             1 	(obj:12)
t_x_859                                             1 	(obj:20)
t_x_862                                             1 	(obj:13)
t_x_863                                             1 	(obj:14)
t_x_865                                             1 	(obj:1)
t_x_866                                             1 	(obj:55)
t_x_868                                             1 	(obj:15)
t_x_870                                             1 	(obj:12)
t_x_873                                             1 	(obj:16)
t_x_874                                             1 	(obj:29)
t_x_876                                             1 	(obj:9)
t_x_879                                             1 	(obj:6)
t_x_881                                             1 	(obj:34)
t_x_883                                             1 	(obj:13)
t_x_885                                             1 	(obj:14)
t_x_887                                             1 	(obj:9)
t_x_891                                             1 	(obj:3)
t_x_892                                             1 	(obj:7)
t_x_896                                             1 	(obj:2)
t_x_898                                             1 	(obj:48)
t_x_906                                             1 	(obj:10)
t_x_911                                             1 	(obj:36)
t_x_913                                             1 	(obj:11)
t_x_915                                             1 	(obj:8)
t_x_925                                             1 	(obj:28)
t_x_927                                             1 	(obj:40)
t_x_929                                             1 	(obj:11)
t_x_942                                             1 	(obj:36)
t_x_946                                             1 	(obj:2)
t_x_950                                             1 	(obj:0)
t_x_954                                             1 	(obj:16)
t_x_955                                             1 	(obj:16)
t_x_956                                             1 	(obj:3)
t_x_957                                             1 	(obj:5)
t_x_959                                             1 	(obj:1)
t_x_962                                             1 	(obj:4)
t_x_963                                             1 	(obj:22)
t_x_970                                             1 	(obj:10)
t_x_973                                             1 	(obj:2)
t_x_980                                             1 	(obj:10)
t_x_981                                             1 	(obj:32)
t_x_982                                             1 	(obj:8)
t_x_983                                             1 	(obj:9)
t_x_991                                             1 	(obj:63)
t_x_994                                             1 	(obj:21)
t_x_995                                             1 	(obj:18)
t_x_998                                             1 	(obj:12)
t_x_999                                             1 	(obj:19)
t_x_1000                                            1 	(obj:9)
t_x_1005                                            1 	(obj:14)
t_x_1009                                            1 	(obj:8)
t_x_1010                                            1 	(obj:5)
t_x_1012                                            1 	(obj:7)
t_x_1017                                            1 	(obj:26)
t_x_1019                                            1 	(obj:19)
t_x_1021                                            1 	(obj:11)
t_x_1024                                            1 	(obj:12)
t_x_1026                                            1 	(obj:42)
t_x_1032                                            1 	(obj:20)
t_x_1033                                            1 	(obj:3)
t_x_1034                                            1 	(obj:30)
t_x_1035                                            1 	(obj:1)
t_x_1037                                            1 	(obj:5)
t_x_1038                                            1 	(obj:9)
t_x_1040                                            1 	(obj:22)
t_x_1043                                            1 	(obj:35)
t_x_1049                                            1 	(obj:30)
t_x_1053                                            1 	(obj:17)
t_x_1059                                            1 	(obj:45)
t_x_1060                                            1 	(obj:35)
t_x_1061                                            1 	(obj:7)
t_x_1064                                            1 	(obj:22)
t_x_1067                                            1 	(obj:13)
t_x_1072                                            1 	(obj:12)
t_x_1075                                            1 	(obj:41)
t_x_1077                                            1 	(obj:11)
t_x_1078                                            1 	(obj:2)
t_x_1083                                            1 	(obj:4)
t_x_1090                                            1 	(obj:7)
t_x_1091                                            1 	(obj:32)
t_x_1099                                            1 	(obj:29)
t_x_1111                                            1 	(obj:3)
t_x_1113                                            1 	(obj:10)
t_x_1114                                            1 	(obj:21)
t_x_1115                                            1 	(obj:44)
t_x_1118                                            1 	(obj:1)
t_x_1119                                            1 	(obj:27)
t_x_1121                                            1 	(obj:16)
t_x_1123                                            1 	(obj:12)
t_x_1128                                            1 	(obj:31)
t_x_1135                                            1 	(obj:14)
t_x_1137                                            1 	(obj:23)
t_x_1142                                            1 	(obj:11)
t_x_1144                                            1 	(obj:1)
t_x_1146                                            1 	(obj:20)
t_x_1147                                            1 	(obj:46)
t_x_1149                                            1 	(obj:18)
t_x_1150                                            1 	(obj:5)
t_x_1153                                            1 	(obj:4)
t_x_1157                                            1 	(obj:32)
t_x_1161                                            1 	(obj:15)
t_x_1168                                            1 	(obj:28)
t_x_1170                                            1 	(obj:48)
t_x_1173                                            1 	(obj:15)
t_x_1174                                            1 	(obj:14)
t_x_1175                                            1 	(obj:6)
t_x_1178                                            1 	(obj:47)
t_x_1181                                            1 	(obj:2)
t_x_1183                                            1 	(obj:1)
t_x_1185                                            1 	(obj:1)
t_x_1186                                            1 	(obj:3)
t_x_1191                                            1 	(obj:33)
t_x_1198                                            1 	(obj:38)
t_x_1200                                            1 	(obj:8)
t_x_1201                                            1 	(obj:4)
t_x_1205                                            1 	(obj:29)
t_x_1208                                            1 	(obj:7)
t_x_1211                                            1 	(obj:16)
t_x_1226                                            1 	(obj:7)
t_x_1228                                            1 	(obj:48)
t_x_1236                                            1 	(obj:30)
t_x_1239                                            1 	(obj:13)
t_x_1244                                            1 	(obj:28)
t_x_1248                                            1 	(obj:26)
t_x_1255                                            1 	(obj:3)
t_x_1256                                            1 	(obj:16)
t_x_1260                                            1 	(obj:29)
t_x_1262                                            1 	(obj:7)
t_x_1265                                            1 	(obj:1)
t_x_1270                                            1 	(obj:1)
t_x_1273                                            1 	(obj:46)
t_x_1278                                            1 	(obj:23)
t_x_1284                                            1 	(obj:21)
t_x_1288                                            1 	(obj:3)
t_x_1289                                            1 	(obj:11)
t_x_1294                                            1 	(obj:48)
t_x_1297                                            1 	(obj:4)
t_x_1300                                            1 	(obj:4)
t_x_1302                                            1 	(obj:8)
t_x_1303                                            1 	(obj:24)
t_x_1305                                            1 	(obj:1)
t_x_1308                                            1 	(obj:19)
t_x_1309                                            1 	(obj:36)
t_x_1314                                            1 	(obj:12)
t_x_1319                                            1 	(obj:19)
t_x_1321                                            1 	(obj:21)
t_x_1323                                            1 	(obj:24)
t_x_1324                                            1 	(obj:21)
t_x_1326                                            1 	(obj:1)
t_x_1327                                            1 	(obj:14)
t_x_1328                                            1 	(obj:13)
t_x_1329                                            1 	(obj:44)
t_x_1331                                            1 	(obj:9)
t_x_1334                                            1 	(obj:11)
t_x_1335                                            1 	(obj:19)
t_x_1340                                            1 	(obj:9)
t_x_1345                                            1 	(obj:1)
t_x_1347                                            1 	(obj:10)
t_x_1353                                            1 	(obj:32)
t_x_1359                                            1 	(obj:26)
t_x_1361                                            1 	(obj:11)
t_x_1363                                            1 	(obj:36)
t_x_1366                                            1 	(obj:18)
t_x_1367                                            1 	(obj:3)
t_x_1369                                            1 	(obj:11)
t_x_1370                                            1 	(obj:21)
t_x_1371                                            1 	(obj:17)
t_x_1375                                            1 	(obj:12)
t_x_1376                                            1 	(obj:12)
t_x_1380                                            1 	(obj:23)
t_x_1381                                            1 	(obj:20)
t_x_1386                                            1 	(obj:9)
t_x_1388                                            1 	(obj:33)
t_x_1389                                            1 	(obj:23)
t_x_1391                                            1 	(obj:36)
t_x_1404                                            1 	(obj:24)
t_x_1409                                            1 	(obj:0)
t_x_1410                                            1 	(obj:45)
t_x_1414                                            1 	(obj:74)
t_x_1416                                            1 	(obj:32)
t_x_1417                                            1 	(obj:3)
t_x_1425                                            1 	(obj:5)
t_x_1428                                            1 	(obj:4)
t_x_1430                                            1 	(obj:14)
t_x_1432                                            1 	(obj:22)
t_x_1446                                            1 	(obj:73)
t_x_1447                                            1 	(obj:14)
t_x_1450                                            1 	(obj:10)
t_x_1452                                            1 	(obj:0)
t_x_1479                                            1 	(obj:16)
t_x_1481                                            1 	(obj:13)
t_x_1484                                            1 	(obj:13)
t_x_1485                                            1 	(obj:38)
t_x_1496                                            1 	(obj:26)
t_x_1499                                            1 	(obj:30)
t_x_1506                                            1 	(obj:34)
t_x_1507                                            1 	(obj:24)
t_x_1509                                            1 	(obj:22)
t_x_1515                                            1 	(obj:9)
t_x_1516                                            1 	(obj:20)
t_x_1517                                            1 	(obj:18)
t_x_1519                                            1 	(obj:29)
t_x_1521                                            1 	(obj:24)
t_x_1526                                            1 	(obj:10)
t_x_1534                                            1 	(obj:41)
t_x_1536                                            1 	(obj:20)
t_x_1538                                            1 	(obj:22)
t_x_1542                                            1 	(obj:1)
t_x_1551                                            1 	(obj:28)
t_x_1554                                            1 	(obj:39)
t_x_1557                                            1 	(obj:48)
t_x_1559                                            1 	(obj:23)
t_x_1562                                            1 	(obj:12)
t_x_1563                                            1 	(obj:8)
t_x_1565                                            1 	(obj:20)
t_x_1567                                            1 	(obj:33)
t_x_1569                                            1 	(obj:0)
t_x_1572                                            1 	(obj:13)
t_x_1573                                            1 	(obj:20)
t_x_1576                                            1 	(obj:3)
t_x_1583                                            1 	(obj:9)
t_x_1586                                            1 	(obj:23)
t_x_1590                                            1 	(obj:10)
t_x_1594                                            1 	(obj:2)
t_x_1595                                            1 	(obj:14)
t_x_1597                                            1 	(obj:62)
t_x_1601                                            1 	(obj:21)
t_x_1602                                            1 	(obj:21)
t_x_1606                                            1 	(obj:6)
t_x_1610                                            1 	(obj:5)
t_x_1615                                            1 	(obj:29)
t_x_1616                                            1 	(obj:8)
t_x_1619                                            1 	(obj:2)
t_x_1622                                            1 	(obj:4)
t_x_1623                                            1 	(obj:46)
t_x_1626                                            1 	(obj:15)
t_x_1631                                            1 	(obj:14)
t_x_1635                                            1 	(obj:13)
t_x_1637                                            1 	(obj:1)
t_x_1638                                            1 	(obj:8)
t_x_1640                                            1 	(obj:13)
t_x_1642                                            1 	(obj:4)
t_x_1644                                            1 	(obj:1)
t_x_1649                                            1 	(obj:39)
t_x_1650                                            1 	(obj:34)
t_x_1651                                            1 	(obj:47)
t_x_1653                                            1 	(obj:10)
t_x_1655                                            1 	(obj:9)
t_x_1657                                            1 	(obj:37)
t_x_1659                                            1 	(obj:0)
t_x_1662                                            1 	(obj:0)
t_x_1672                                            1 	(obj:34)
t_x_1673                                            1 	(obj:28)
t_x_1675                                            1 	(obj:43)
t_x_1682                                            1 	(obj:10)
t_x_1687                                            1 	(obj:33)
t_x_1690                                            1 	(obj:19)
t_x_1693                                            1 	(obj:8)
t_x_1699                                            1 	(obj:9)
t_x_1703                                            1 	(obj:15)
t_x_1704                                            1 	(obj:14)
t_x_1707                                            1 	(obj:35)
t_x_1710                                            1 	(obj:60)
t_x_1716                                            1 	(obj:13)
t_x_1718                                            1 	(obj:9)
t_x_1726                                            1 	(obj:26)
t_x_1733                                            1 	(obj:8)
t_x_1739                                            1 	(obj:9)
t_x_1748                                            1 	(obj:33)
t_x_1753                                            1 	(obj:13)
t_x_1759                                            1 	(obj:4)
t_x_1766                                            1 	(obj:20)
t_x_1770                                            1 	(obj:2)
t_x_1776                                            1 	(obj:10)
t_x_1777                                            1 	(obj:63)
t_x_1780                                            1 	(obj:34)
t_x_1781                                            1 	(obj:7)
t_x_1785                                            1 	(obj:17)
t_x_1787                                            1 	(obj:9)
t_x_1788                                            1 	(obj:2)
t_x_1789                                            1 	(obj:21)
t_x_1792                                            1 	(obj:6)
t_x_1795                                            1 	(obj:18)
t_x_1796                                            1 	(obj:32)
t_x_1801                                            1 	(obj:5)
t_x_1805                                            1 	(obj:1)
t_x_1807                                            1 	(obj:22)
t_x_1809                                            1 	(obj:33)
t_x_1810                                            1 	(obj:0)
t_x_1811                                            1 	(obj:11)
t_x_1812                                            1 	(obj:25)
t_x_1825                                            1 	(obj:25)
t_x_1831                                            1 	(obj:3)
t_x_1834                                            1 	(obj:12)
t_x_1835                                            1 	(obj:12)
t_x_1836                                            1 	(obj:10)
t_x_1839                                            1 	(obj:48)
t_x_1840                                            1 	(obj:43)
t_x_1843                                            1 	(obj:44)
t_x_1850                                            1 	(obj:22)
t_x_1852                                            1 	(obj:14)
t_x_1853                                            1 	(obj:17)
t_x_1856                                            1 	(obj:9)
t_x_1857                                            1 	(obj:4)
t_x_1859                                            1 	(obj:11)
t_x_1875                                            1 	(obj:54)
t_x_1876                                            1 	(obj:2)
t_x_1883                                            1 	(obj:37)
t_x_1885                                            1 	(obj:31)
t_x_1886                                            1 	(obj:7)
t_x_1892                                            1 	(obj:21)
t_x_1897                                            1 	(obj:4)
t_x_1898                                            1 	(obj:17)
t_x_1904                                            1 	(obj:0)
t_x_1907                                            1 	(obj:33)
t_x_1908                                            1 	(obj:17)
t_x_1915                                            1 	(obj:21)
t_x_1924                                            1 	(obj:5)
t_x_1925                                            1 	(obj:4)
t_x_1927                                            1 	(obj:41)
t_x_1930                                            1 	(obj:31)
t_x_1933                                            1 	(obj:21)
t_x_1936                                            1 	(obj:12)
t_x_1937                                            1 	(obj:27)
t_x_1938                                            1 	(obj:9)
t_x_1941                                            1 	(obj:23)
t_x_1942                                            1 	(obj:8)
t_x_1946                                            1 	(obj:10)
t_x_1949                                            1 	(obj:20)
t_x_1950                                            1 	(obj:29)
t_x_1952                                            1 	(obj:26)
t_x_1960                                            1 	(obj:37)
t_x_1961                                            1 	(obj:16)
t_x_1963                                            1 	(obj:24)
t_x_1964                                            1 	(obj:30)
t_x_1970                                            1 	(obj:8)
t_x_1975                                            1 	(obj:1)
t_x_1976                                            1 	(obj:3)
t_x_1980                                            1 	(obj:3)
t_x_1981                                            1 	(obj:18)
t_x_1983                                            1 	(obj:31)
t_x_1986                                            1 	(obj:38)
t_x_1987                                            1 	(obj:21)
t_x_1988                                            1 	(obj:14)
t_x_1992                                            1 	(obj:15)
t_x_1994                                            1 	(obj:36)
